
******************************************************************************
This program contains Ipopt, a library for large-scale nonlinear optimization.
 Ipopt is released as open source code under the Eclipse Public License (EPL).
         For more information visit http://projects.coin-or.org/Ipopt
******************************************************************************

This is Ipopt version 3.12.6, running with linear solver ma57.

Number of nonzeros in equality constraint Jacobian...:        0
Number of nonzeros in inequality constraint Jacobian.:        0
Number of nonzeros in Lagrangian Hessian.............:        6

Total number of variables............................:        3
                     variables with only lower bounds:        0
                variables with lower and upper bounds:        0
                     variables with only upper bounds:        0
Total number of equality constraints.................:        0
Total number of inequality constraints...............:        0
        inequality constraints with only lower bounds:        0
   inequality constraints with lower and upper bounds:        0
        inequality constraints with only upper bounds:        0

iter    objective    inf_pr   inf_du lg(mu)  ||d||  lg(rg) alpha_du alpha_pr  ls
   0  2.3404196e+03 0.00e+00 1.00e+02  -1.0 0.00e+00    -  0.00e+00 0.00e+00   0
   1  1.0321333e+02 0.00e+00 1.61e+01  -1.0 1.28e+03  -2.0 1.00e+00 7.81e-03f  8
   2  3.8892090e+01 0.00e+00 9.50e+00  -1.0 6.85e+00    -  1.00e+00 1.00e+00f  1
   3  2.3041505e+01 0.00e+00 8.94e+00  -1.0 9.65e+00    -  1.00e+00 1.00e+00f  1
   4  9.4858221e+00 0.00e+00 1.20e+00  -1.0 3.67e+00    -  1.00e+00 1.00e+00f  1
   5  6.6067240e+00 0.00e+00 6.39e+00  -1.0 1.46e+01    -  1.00e+00 5.00e-01f  2
   6  3.9026906e+00 0.00e+00 6.73e-01  -1.0 3.58e+00    -  1.00e+00 1.00e+00f  1
   7  2.8699451e+00 0.00e+00 3.11e+00  -1.7 1.08e+01    -  1.00e+00 5.00e-01f  2
   8  1.9096886e+00 0.00e+00 1.32e+00  -1.7 4.33e+00    -  1.00e+00 1.00e+00f  1
   9  1.4621740e+00 0.00e+00 3.67e+00  -1.7 6.80e+00    -  1.00e+00 1.00e+00f  1
iter    objective    inf_pr   inf_du lg(mu)  ||d||  lg(rg) alpha_du alpha_pr  ls
  10  9.2544211e-01 0.00e+00 3.54e-01  -1.7 2.79e+00    -  1.00e+00 1.00e+00f  1
  11  7.3760781e-01 0.00e+00 2.43e+00  -1.7 1.11e+01    -  1.00e+00 5.00e-01f  2
  12  4.9844435e-01 0.00e+00 4.29e-01  -1.7 2.92e+00    -  1.00e+00 1.00e+00f  1
  13  3.9473963e-01 0.00e+00 1.47e+00  -1.7 8.78e+00    -  1.00e+00 5.00e-01f  2
  14  2.7998787e-01 0.00e+00 6.27e-01  -1.7 3.41e+00    -  1.00e+00 1.00e+00f  1
  15  2.3034218e-01 0.00e+00 1.94e+00  -1.7 5.73e+00    -  1.00e+00 1.00e+00f  1
  16  1.4559226e-01 0.00e+00 1.58e-01  -1.7 2.01e+00    -  1.00e+00 1.00e+00f  1
  17  1.2374678e-01 0.00e+00 1.50e+00  -2.5 1.01e+01    -  1.00e+00 5.00e-01f  2
  18  7.7696950e-02 0.00e+00 1.34e-01  -2.5 1.86e+00    -  1.00e+00 1.00e+00f  1
  19  6.4465409e-02 0.00e+00 1.12e+00  -2.5 8.97e+00    -  1.00e+00 5.00e-01f  2
iter    objective    inf_pr   inf_du lg(mu)  ||d||  lg(rg) alpha_du alpha_pr  ls
  20  4.0258555e-02 0.00e+00 1.23e-01  -2.5 1.77e+00    -  1.00e+00 1.00e+00f  1
  21  3.1729150e-02 0.00e+00 7.48e-01  -2.5 7.48e+00    -  1.00e+00 5.00e-01f  2
  22  1.9924543e-02 0.00e+00 1.34e-01  -2.5 1.81e+00    -  1.00e+00 1.00e+00f  1
  23  1.4797936e-02 0.00e+00 4.15e-01  -2.5 5.47e+00    -  1.00e+00 5.00e-01f  2
  24  9.2707387e-03 0.00e+00 1.93e-01  -2.5 2.13e+00    -  1.00e+00 1.00e+00f  1
  25  6.3648857e-03 0.00e+00 4.30e-01  -2.5 3.12e+00    -  1.00e+00 1.00e+00f  1
  26  3.2651711e-03 0.00e+00 6.21e-02  -2.5 1.27e+00    -  1.00e+00 1.00e+00f  1
  27  2.0746023e-03 0.00e+00 1.80e-01  -2.5 3.72e+00    -  1.00e+00 5.00e-01f  2
  28  9.9836359e-04 0.00e+00 9.91e-02  -2.5 1.56e+00    -  1.00e+00 1.00e+00f  1
  29  4.3605377e-04 0.00e+00 1.12e-01  -2.5 1.65e+00    -  1.00e+00 1.00e+00f  1
iter    objective    inf_pr   inf_du lg(mu)  ||d||  lg(rg) alpha_du alpha_pr  ls
  30  1.3624082e-04 0.00e+00 3.46e-02  -2.5 9.33e-01    -  1.00e+00 1.00e+00f  1
  31  3.2150007e-05 0.00e+00 4.31e-02  -2.5 1.03e+00    -  1.00e+00 1.00e+00f  1
  32  2.6527470e-06 0.00e+00 4.59e-03  -2.5 3.43e-01    -  1.00e+00 1.00e+00f  1
  33  4.0733294e-08 0.00e+00 1.80e-03  -3.8 2.12e-01    -  1.00e+00 1.00e+00f  1
  34  1.0177916e-11 0.00e+00 9.30e-06  -3.8 1.55e-02    -  1.00e+00 1.00e+00f  1
  35  6.6697274e-13 0.00e+00 7.41e-09  -8.6 4.30e-04    -  1.00e+00 1.00e+00f  1

Number of Iterations....: 35

                                   (scaled)                 (unscaled)
Objective...............:   1.2522193950826222e-14    6.6697274044264404e-13
Dual infeasibility......:   7.4056015579605379e-09    3.9444640333280842e-07
Constraint violation....:   0.0000000000000000e+00    0.0000000000000000e+00
Complementarity.........:   0.0000000000000000e+00    0.0000000000000000e+00
Overall NLP error.......:   7.4056015579605379e-09    3.9444640333280842e-07


Number of objective function evaluations             = 92
Number of objective gradient evaluations             = 36
Number of equality constraint evaluations            = 0
Number of inequality constraint evaluations          = 0
Number of equality constraint Jacobian evaluations   = 0
Number of inequality constraint Jacobian evaluations = 0
Number of Lagrangian Hessian evaluations             = 35
Total CPU secs in IPOPT (w/o function evaluations)   =      0.003
Total CPU secs in NLP function evaluations           =      0.000

EXIT: Optimal Solution Found.

 ** SUBROUTINE CUTEST_csetup: Warning. The problem has no general constraints. 
 ** Other tools may be preferable ** 

************************ CUTEst statistics ************************


 Package used            :  IPOPT
 Problem                 :  YFITU     
 # variables             =               3
 # constraints           =               0
 # objective functions   =        0.1290000E+03
 # objective gradients   =        0.3700000E+02
 # objective Hessians    =        0.3600000E+02
 # Hessian-vector prdct  =        0.0000000E+00
 # constraints functions =        0.0000000E+00
 # constraints gradients =        0.0000000E+00
 # constraints Hessians  =        0.0000000E+00
 Exit code               =               0
 Final f                 =   0.6669727E-12
 Set up time             =            0.00 seconds
 Solve time              =            0.05 seconds


******************************************************************

System Time =       0.0120000001 s.
